p cnf 45 250
3 0
-1 0
6 0
-4 0
9 0
-7 0
12 0
-10 0
15 0
-13 0
18 0
-16 0
21 0
-19 0
24 0
-22 0
27 0
-25 0
30 0
-28 0
33 0
-31 0
36 0
-34 0
39 0
-37 0
42 0
-40 0
45 0
-43 0
-1 2 0
-2 3 0
-4 5 0
-5 6 0
-7 8 0
-8 9 0
-10 11 0
-11 12 0
-13 14 0
-14 15 0
-16 17 0
-17 18 0
-19 20 0
-20 21 0
-22 23 0
-23 24 0
-25 26 0
-26 27 0
-28 29 0
-29 30 0
-31 32 0
-32 33 0
-34 35 0
-35 36 0
-37 38 0
-38 39 0
-40 41 0
-41 42 0
-43 44 0
-44 45 0
-4 -7 19 0
-4 -19 7 0
-7 -19 4 0
-5 -8 20 0
-5 -20 8 0
-8 -20 5 0
-6 -9 21 0
-6 -21 9 0
-9 -21 6 0
-4 -10 22 0
-4 -22 10 0
-10 -22 4 0
-5 -11 23 0
-5 -23 11 0
-11 -23 5 0
-6 -12 24 0
-6 -24 12 0
-12 -24 6 0
-4 -13 25 0
-4 -25 13 0
-13 -25 4 0
-5 -14 26 0
-5 -26 14 0
-14 -26 5 0
-6 -15 27 0
-6 -27 15 0
-15 -27 6 0
-7 -10 31 0
-7 -31 10 0
-10 -31 7 0
-8 -11 32 0
-8 -32 11 0
-11 -32 8 0
-9 -12 33 0
-9 -33 12 0
-12 -33 9 0
-7 -13 34 0
-7 -34 13 0
-13 -34 7 0
-8 -14 35 0
-8 -35 14 0
-14 -35 8 0
-9 -15 36 0
-9 -36 15 0
-15 -36 9 0
-10 -13 40 0
-10 -40 13 0
-13 -40 10 0
-11 -14 41 0
-11 -41 14 0
-14 -41 11 0
-12 -15 42 0
-12 -42 15 0
-15 -42 12 0
-19 -22 31 0
-19 -31 22 0
-22 -31 19 0
-20 -23 32 0
-20 -32 23 0
-23 -32 20 0
-21 -24 33 0
-21 -33 24 0
-24 -33 21 0
-19 -25 34 0
-19 -34 25 0
-25 -34 19 0
-20 -26 35 0
-20 -35 26 0
-26 -35 20 0
-21 -27 36 0
-21 -36 27 0
-27 -36 21 0
-22 -25 40 0
-22 -40 25 0
-25 -40 22 0
-23 -26 41 0
-23 -41 26 0
-26 -41 23 0
-24 -27 42 0
-24 -42 27 0
-27 -42 24 0
-31 -34 40 0
-31 -40 34 0
-34 -40 31 0
-32 -35 41 0
-32 -41 35 0
-35 -41 32 0
-33 -36 42 0
-33 -42 36 0
-36 -42 33 0
-4 1 0
-4 16 0
-5 2 0
-5 17 0
-6 3 0
-6 18 0
-7 1 0
-7 28 0
-8 2 0
-8 29 0
-9 3 0
-9 30 0
-10 1 0
-10 37 0
-11 2 0
-11 38 0
-12 3 0
-12 39 0
-13 1 0
-13 43 0
-14 2 0
-14 44 0
-15 3 0
-15 45 0
-19 16 0
-19 28 0
-20 17 0
-20 29 0
-21 18 0
-21 30 0
-22 16 0
-22 37 0
-23 17 0
-23 38 0
-24 18 0
-24 39 0
-25 16 0
-25 43 0
-26 17 0
-26 44 0
-27 18 0
-27 45 0
-31 28 0
-31 37 0
-32 29 0
-32 38 0
-33 30 0
-33 39 0
-34 28 0
-34 43 0
-35 29 0
-35 44 0
-36 30 0
-36 45 0
-40 37 0
-40 43 0
-41 38 0
-41 44 0
-42 39 0
-42 45 0
-5 1 16 0
-6 2 17 0
-8 1 28 0
-9 2 29 0
-11 1 37 0
-12 2 38 0
-14 1 43 0
-15 2 44 0
-20 16 28 0
-21 17 29 0
-23 16 37 0
-24 17 38 0
-26 16 43 0
-27 17 44 0
-32 28 37 0
-33 29 38 0
-35 28 43 0
-36 29 44 0
-41 37 43 0
-42 38 44 0
-2 1 -17 5 0
-2 16 -17 5 0
-3 2 -18 6 0
-3 17 -18 6 0
-2 1 -29 8 0
-2 28 -29 8 0
-3 2 -30 9 0
-3 29 -30 9 0
-17 16 -38 23 0
-17 37 -38 23 0
-18 17 -39 24 0
-18 38 -39 24 0
-17 16 -29 20 0
-17 28 -29 20 0
-18 17 -30 21 0
-18 29 -30 21 0
-29 28 -44 35 0
-29 43 -44 35 0
-30 29 -45 36 0
-30 44 -45 36 0
